
Gurobi 10.0.1 (linux64) logging started Sun Nov 26 15:41:44 2023

Set parameter LogFile to value "ArtificialInstance/ExperimentV2/S3T4K2/AdRo/gurobiDoRo16.txt"
Gurobi Optimizer version 10.0.1 build v10.0.1rc0 (linux64)

CPU model: AMD EPYC 7H12 64-Core Processor, instruction set [SSE2|AVX|AVX2]
Thread count: 128 physical cores, 128 logical processors, using up to 32 threads

Academic license 656792 - for non-commercial use only - registered to b.___@student.vu.nl
Optimize a model with 9083 rows, 8653 columns and 33555 nonzeros
Model fingerprint: 0x560b2615
Variable types: 1 continuous, 8652 integer (8652 binary)
Coefficient statistics:
  Matrix range     [1e+00, 4e+01]
  Objective range  [1e+00, 2e+01]
  Bounds range     [1e+00, 1e+00]
  RHS range        [1e+00, 1e+00]
Presolve removed 3688 rows and 3402 columns
Presolve time: 0.11s
Presolved: 5395 rows, 5251 columns, 20424 nonzeros
Variable types: 1 continuous, 5250 integer (5250 binary)
Found heuristic solution: objective 70.9363697

Root relaxation: objective 6.809252e+01, 1405 iterations, 0.05 seconds (0.03 work units)

    Nodes    |    Current Node    |     Objective Bounds      |     Work
 Expl Unexpl |  Obj  Depth IntInf | Incumbent    BestBd   Gap | It/Node Time

H    0     0                      68.0925212   42.18372  38.0%     -    0s
     0     0          -    0        68.09252   68.09252  0.00%     -    0s

Explored 1 nodes (1939 simplex iterations) in 0.23 seconds (0.16 work units)
Thread count was 32 (of 128 available processors)

Solution count 2: 68.0925 70.9364 

Optimal solution found (tolerance 1.00e-04)
Best objective 6.809252116352e+01, best bound 6.809252116352e+01, gap 0.0000%
